9 5 80
0 1
1 1
2 1
3 0
4 1
5 0
6 1
7 1
8 1
9 1
10 1
11 1
12 0
13 1
14 1
15 1
16 1
17 1
18 1
19 0
20 1
21 0
22 1
23 1
24 1
25 1
26 1
27 1
28 0
29 1
30 0
31 1
32 1
33 1
34 1
35 1
36 1
37 1
38 0
39 1
40 1
41 0
42 1
43 1
44 1
